/* Objective function */
min: 7 x11+7 x12+ 7 x13+ 7 x14+ 7 x15+ 7 x16 + 10 x21+ 10 x22+ 10 x23+ 10 x24+ 10 x25+ 10 x26+ 10 x27+ 10 x28+ 10 x29+ 10 x210+ 10 x211 + 11 x31+ 11 x32+ 11 x33+ 11 x34+ 11 x35+ 11 x36+ 11 x37+ 11 x38+ 11 x39+ 11 x310+ 11 x311+ 11 x312+ 11 x313+ 11 x314;

/* Variable bounds */

Contentor_7  : x11+x12+x13+x14+x15+x16<=4;
Contentor_10 : x21+x22+x23+x24+x25+x26+x27+x28+x29+x210+x211+x212<=1;
Contentor_11 : x31+x32+x33+x34+x35+x36+x37+x38+x39+x310+x311+x312+x313+x314 >=0;

I2: x11 + x13 + 2 x14 + 3 x15 + 5 x22 +   x23 + x27 + x28 + 3 x29  + 2 x210 + 3 x211+ 2 x212 + 5 x32 +   x33 + x34 + x35  + 2 x37  +   x38  + 3 x39  + 2 x310 + 4 x311 + 3 x312 >= 10;
I3: x12 + x14 + 2 x16         + 3 x24 + 2 x26 + x27 + x28 + 2 x210 +   x211                  + 3 x34 + 2 x36 + x37 + x38  + 2 x310 +   x311 + 2 x313 +   x314 >=10;
I4: x12 + x13                 + 2 x23 +   x25 + x26 + x27 +   x29                            + 2 x33 +   x35 + x36 + x37  +   x39  + 2 x314 >=6;
I5: x11                       + 2 x21 +   x25 + x28 + x212                                   + 2 x31 +   x35 + x38 + x312 +   x313 >=5;

int x11,x12,x13,x14,x15,x16;
int x21,x22,x23,x24,x25,x26,x27,x28,x29,x210,x211,x212;
int x31,x32,x33,x34,x35,x36,x37,x38,x39,x310,x311,x312,x313,x314;
